words_hard_train/1364.qaiger
aag 89 16 0 1 73
2
4
8
12
16
24
32
46
62
74
86
98
134
144
152
156
179
6 3 5
10 6 9
14 11 13
18 15 16
20 14 17
22 19 21
26 24 2
28 2 4
30 29 7
34 31 33
36 26 35
38 30 32
40 37 39
42 7 8
44 43 11
48 45 47
50 44 46
52 49 51
54 41 52
56 55 51
58 10 12
60 59 15
64 60 63
66 61 62
68 65 67
70 57 68
72 71 67
76 15 75
78 14 74
80 77 79
82 73 80
84 83 79
88 15 87
90 14 86
92 89 91
94 85 92
96 95 91
100 15 99
102 14 98
104 101 103
106 97 104
108 107 103
110 23 109
112 111 12
114 22 108
116 112 115
118 107 8
120 96 105
122 118 121
124 72 81
126 125 83
128 126 2
130 56 69
132 131 71
136 132 134
138 129 137
140 40 53
142 141 55
146 142 144
148 25 3
150 149 27
154 150 152
158 35 156
160 158 39
162 154 161
164 147 162
166 138 164
168 84 93
170 169 4
172 170 95
174 166 173
176 123 174
178 117 176
i0 1 x1[4]
i1 1 x1[5]
i2 1 x1[6]
i3 1 x1[7]
i4 2 y2[7]
i5 2 y2[0]
i6 2 y2[1]
i7 2 y2[2]
i8 2 y2[3]
i9 2 y2[4]
i10 2 y2[5]
i11 2 y2[6]
i12 1 x1[3]
i13 1 x1[2]
i14 1 x1[0]
i15 1 x1[1]
o0 bool[0]
c
simplified
  !=
    1
    and
      subtract
        2 y2
        >> 4
          1 x1
      1 x1
