words_hard_train/1364.qaiger.qdimacs
p cnf 89 220
a 1 2 67 4 6 72 76 78 0
e 3 5 7 8 9 10 11 12 13 14 15 16 17 18 19 20 21 22 23 24 25 26 27 28 29 30 31 32 33 34 35 36 37 38 39 40 41 42 43 44 45 46 47 48 49 50 51 52 53 54 55 56 57 58 59 60 61 62 63 64 65 66 68 69 70 71 73 74 75 77 79 80 81 82 83 84 85 86 87 88 89 0
1 2 3 0
-1 -3 0
-2 -3 0
-3 4 5 0
3 -5 0
-4 -5 0
5 6 7 0
-5 -7 0
-6 -7 0
7 -8 9 0
-7 -9 0
8 -9 0
-7 8 10 0
7 -10 0
-8 -10 0
9 10 11 0
-9 -11 0
-10 -11 0
-12 -1 13 0
12 -13 0
1 -13 0
-1 -2 14 0
1 -14 0
2 -14 0
14 3 15 0
-14 -15 0
-3 -15 0
15 16 17 0
-15 -17 0
-16 -17 0
-13 17 18 0
13 -18 0
-17 -18 0
-15 -16 19 0
15 -19 0
16 -19 0
18 19 20 0
-18 -20 0
-19 -20 0
3 -4 21 0
-3 -21 0
4 -21 0
21 5 22 0
-21 -22 0
-5 -22 0
22 23 24 0
-22 -24 0
-23 -24 0
-22 -23 25 0
22 -25 0
23 -25 0
24 25 26 0
-24 -26 0
-25 -26 0
20 -26 27 0
-20 -27 0
26 -27 0
27 25 28 0
-27 -28 0
-25 -28 0
-5 -6 29 0
5 -29 0
6 -29 0
29 7 30 0
-29 -30 0
-7 -30 0
-30 31 32 0
30 -32 0
-31 -32 0
30 -31 33 0
-30 -33 0
31 -33 0
32 33 34 0
-32 -34 0
-33 -34 0
28 -34 35 0
-28 -35 0
34 -35 0
35 33 36 0
-35 -36 0
-33 -36 0
7 37 38 0
-7 -38 0
-37 -38 0
-7 -37 39 0
7 -39 0
37 -39 0
38 39 40 0
-38 -40 0
-39 -40 0
36 -40 41 0
-36 -41 0
40 -41 0
41 39 42 0
-41 -42 0
-39 -42 0
7 43 44 0
-7 -44 0
-43 -44 0
-7 -43 45 0
7 -45 0
43 -45 0
44 45 46 0
-44 -46 0
-45 -46 0
42 -46 47 0
-42 -47 0
46 -47 0
47 45 48 0
-47 -48 0
-45 -48 0
7 49 50 0
-7 -50 0
-49 -50 0
-7 -49 51 0
7 -51 0
49 -51 0
50 51 52 0
-50 -52 0
-51 -52 0
48 -52 53 0
-48 -53 0
52 -53 0
53 51 54 0
-53 -54 0
-51 -54 0
11 54 55 0
-11 -55 0
-54 -55 0
55 -6 56 0
-55 -56 0
6 -56 0
-11 -54 57 0
11 -57 0
54 -57 0
-56 57 58 0
56 -58 0
-57 -58 0
53 -4 59 0
-53 -59 0
4 -59 0
-48 52 60 0
48 -60 0
-52 -60 0
-59 60 61 0
59 -61 0
-60 -61 0
-36 40 62 0
36 -62 0
-40 -62 0
62 41 63 0
-62 -63 0
-41 -63 0
-63 -1 64 0
63 -64 0
1 -64 0
-28 34 65 0
28 -65 0
-34 -65 0
65 35 66 0
-65 -66 0
-35 -66 0
-66 -67 68 0
66 -68 0
67 -68 0
64 68 69 0
-64 -69 0
-68 -69 0
-20 26 70 0
20 -70 0
-26 -70 0
70 27 71 0
-70 -71 0
-27 -71 0
-71 -72 73 0
71 -73 0
72 -73 0
12 1 74 0
-12 -74 0
-1 -74 0
74 13 75 0
-74 -75 0
-13 -75 0
-75 -76 77 0
75 -77 0
76 -77 0
17 -78 79 0
-17 -79 0
78 -79 0
-79 19 80 0
79 -80 0
-19 -80 0
-77 80 81 0
77 -81 0
-80 -81 0
73 -81 82 0
-73 -82 0
81 -82 0
-69 -82 83 0
69 -83 0
82 -83 0
-42 46 84 0
42 -84 0
-46 -84 0
84 -2 85 0
-84 -85 0
2 -85 0
-85 47 86 0
85 -86 0
-47 -86 0
-83 86 87 0
83 -87 0
-86 -87 0
61 -87 88 0
-61 -88 0
87 -88 0
58 -88 89 0
-58 -89 0
88 -89 0
-89 0
